p cnf 336 1282
-217 -218 0
-217 -219 0
-218 -219 0
-220 -221 0
-1 217 0
-1 220 0
-2 217 0
-2 221 0
-3 218 0
-3 220 0
-4 218 0
-4 221 0
-5 219 0
-5 220 0
-6 219 0
-6 221 0
-1 37 0
-1 7 0
-2 38 0
-2 8 0
-3 39 0
-3 9 0
-4 40 0
-4 10 0
-5 41 0
-5 11 0
-6 42 0
-6 12 0
7 0
-8 0
-9 0
-10 0
-11 0
-12 0
1 13 43 0
-1 -13 0
-1 -43 0
-13 -43 0
16 0
-13 0
-14 0
-15 0
-17 0
-18 0
10 22 52 0
-10 -22 0
-10 -52 0
-22 -52 0
24 0
-19 0
-20 0
-21 0
-22 0
-23 0
18 30 60 0
-18 -30 0
-18 -60 0
-30 -60 0
-222 -223 0
-222 -224 0
-223 -224 0
-225 -226 0
-25 222 0
-25 225 0
-26 222 0
-26 226 0
-27 223 0
-27 225 0
-28 223 0
-28 226 0
-29 224 0
-29 225 0
-30 224 0
-30 226 0
-25 19 31 0
-25 19 61 0
-25 31 61 0
-26 20 32 0
-26 20 62 0
-26 32 62 0
-27 21 33 0
-27 21 63 0
-27 33 63 0
-28 22 34 0
-28 22 64 0
-28 34 64 0
-29 23 35 0
-29 23 65 0
-29 35 65 0
-30 24 36 0
-30 24 66 0
-30 36 66 0
-25 -19 -31 -61 0
-26 -20 -32 -62 0
-27 -21 -33 -63 0
-28 -22 -34 -64 0
-29 -23 -35 -65 0
-30 -24 -36 -66 0
-227 -228 0
-227 -229 0
-228 -229 0
-230 -231 0
-31 227 0
-31 230 0
-32 227 0
-32 231 0
-33 228 0
-33 230 0
-34 228 0
-34 231 0
-35 229 0
-35 230 0
-36 229 0
-36 231 0
-31 67 0
-31 25 0
-32 68 0
-32 26 0
-33 69 0
-33 27 0
-34 70 0
-34 28 0
-35 71 0
-35 29 0
-36 72 0
-36 30 0
-232 -233 0
-232 -234 0
-233 -234 0
-235 -236 0
-37 232 0
-37 235 0
-38 232 0
-38 236 0
-39 233 0
-39 235 0
-40 233 0
-40 236 0
-41 234 0
-41 235 0
-42 234 0
-42 236 0
-37 73 43 0
-37 73 1 0
-37 43 1 0
-38 74 44 0
-38 74 2 0
-38 44 2 0
-39 75 45 0
-39 75 3 0
-39 45 3 0
-40 76 46 0
-40 76 4 0
-40 46 4 0
-41 77 47 0
-41 77 5 0
-41 47 5 0
-42 78 48 0
-42 78 6 0
-42 48 6 0
-37 -73 -43 -1 0
-38 -74 -44 -2 0
-39 -75 -45 -3 0
-40 -76 -46 -4 0
-41 -77 -47 -5 0
-42 -78 -48 -6 0
45 0
-43 0
-44 0
-46 0
-47 0
-48 0
81 51 9 39 0
-81 -51 0
-81 -9 0
-81 -39 0
-51 -9 0
-51 -39 0
-9 -39 0
-237 -238 0
-237 -239 0
-238 -239 0
-240 -241 0
-49 237 0
-49 240 0
-50 237 0
-50 241 0
-51 238 0
-51 240 0
-52 238 0
-52 241 0
-53 239 0
-53 240 0
-54 239 0
-54 241 0
-49 85 55 13 0
-49 85 55 43 0
-49 85 13 43 0
-49 55 13 43 0
-50 86 56 14 0
-50 86 56 44 0
-50 86 14 44 0
-50 56 14 44 0
-51 87 57 15 0
-51 87 57 45 0
-51 87 15 45 0
-51 57 15 45 0
-52 88 58 16 0
-52 88 58 46 0
-52 88 16 46 0
-52 58 16 46 0
-53 89 59 17 0
-53 89 59 47 0
-53 89 17 47 0
-53 59 17 47 0
-54 90 60 18 0
-54 90 60 48 0
-54 90 18 48 0
-54 60 18 48 0
-49 -85 -55 -13 0
-49 -85 -55 -43 0
-49 -85 -13 -43 0
-49 -55 -13 -43 0
-50 -86 -56 -14 0
-50 -86 -56 -44 0
-50 -86 -14 -44 0
-50 -56 -14 -44 0
-51 -87 -57 -15 0
-51 -87 -57 -45 0
-51 -87 -15 -45 0
-51 -57 -15 -45 0
-52 -88 -58 -16 0
-52 -88 -58 -46 0
-52 -88 -16 -46 0
-52 -58 -16 -46 0
-53 -89 -59 -17 0
-53 -89 -59 -47 0
-53 -89 -17 -47 0
-53 -59 -17 -47 0
-54 -90 -60 -18 0
-54 -90 -60 -48 0
-54 -90 -18 -48 0
-54 -60 -18 -48 0
59 0
-55 0
-56 0
-57 0
-58 0
-60 0
95 65 23 53 0
-95 -65 0
-95 -23 0
-95 -53 0
-65 -23 0
-65 -53 0
-23 -53 0
-242 -243 0
-242 -244 0
-243 -244 0
-245 -246 0
-61 242 0
-61 245 0
-62 242 0
-62 246 0
-63 243 0
-63 245 0
-64 243 0
-64 246 0
-65 244 0
-65 245 0
-66 244 0
-66 246 0
-61 97 67 25 0
-61 97 67 55 0
-61 97 25 55 0
-61 67 25 55 0
-62 98 68 26 0
-62 98 68 56 0
-62 98 26 56 0
-62 68 26 56 0
-63 99 69 27 0
-63 99 69 57 0
-63 99 27 57 0
-63 69 27 57 0
-64 100 70 28 0
-64 100 70 58 0
-64 100 28 58 0
-64 70 28 58 0
-65 101 71 29 0
-65 101 71 59 0
-65 101 29 59 0
-65 71 29 59 0
-66 102 72 30 0
-66 102 72 60 0
-66 102 30 60 0
-66 72 30 60 0
-61 -97 -67 -25 0
-61 -97 -67 -55 0
-61 -97 -25 -55 0
-61 -67 -25 -55 0
-62 -98 -68 -26 0
-62 -98 -68 -56 0
-62 -98 -26 -56 0
-62 -68 -26 -56 0
-63 -99 -69 -27 0
-63 -99 -69 -57 0
-63 -99 -27 -57 0
-63 -69 -27 -57 0
-64 -100 -70 -28 0
-64 -100 -70 -58 0
-64 -100 -28 -58 0
-64 -70 -28 -58 0
-65 -101 -71 -29 0
-65 -101 -71 -59 0
-65 -101 -29 -59 0
-65 -71 -29 -59 0
-66 -102 -72 -30 0
-66 -102 -72 -60 0
-66 -102 -30 -60 0
-66 -72 -30 -60 0
-247 -248 0
-247 -249 0
-248 -249 0
-250 -251 0
-67 247 0
-67 250 0
-68 247 0
-68 251 0
-69 248 0
-69 250 0
-70 248 0
-70 251 0
-71 249 0
-71 250 0
-72 249 0
-72 251 0
-67 103 61 0
-67 103 31 0
-67 61 31 0
-68 104 62 0
-68 104 32 0
-68 62 32 0
-69 105 63 0
-69 105 33 0
-69 63 33 0
-70 106 64 0
-70 106 34 0
-70 64 34 0
-71 107 65 0
-71 107 35 0
-71 65 35 0
-72 108 66 0
-72 108 36 0
-72 66 36 0
-67 -103 -61 -31 0
-68 -104 -62 -32 0
-69 -105 -63 -33 0
-70 -106 -64 -34 0
-71 -107 -65 -35 0
-72 -108 -66 -36 0
-252 -253 0
-252 -254 0
-253 -254 0
-255 -256 0
-73 252 0
-73 255 0
-74 252 0
-74 256 0
-75 253 0
-75 255 0
-76 253 0
-76 256 0
-77 254 0
-77 255 0
-78 254 0
-78 256 0
-73 109 79 0
-73 109 37 0
-73 79 37 0
-74 110 80 0
-74 110 38 0
-74 80 38 0
-75 111 81 0
-75 111 39 0
-75 81 39 0
-76 112 82 0
-76 112 40 0
-76 82 40 0
-77 113 83 0
-77 113 41 0
-77 83 41 0
-78 114 84 0
-78 114 42 0
-78 84 42 0
-73 -109 -79 -37 0
-74 -110 -80 -38 0
-75 -111 -81 -39 0
-76 -112 -82 -40 0
-77 -113 -83 -41 0
-78 -114 -84 -42 0
-257 -258 0
-257 -259 0
-258 -259 0
-260 -261 0
-79 257 0
-79 260 0
-80 257 0
-80 261 0
-81 258 0
-81 260 0
-82 258 0
-82 261 0
-83 259 0
-83 260 0
-84 259 0
-84 261 0
-79 115 85 43 0
-79 115 85 73 0
-79 115 43 73 0
-79 85 43 73 0
-80 116 86 44 0
-80 116 86 74 0
-80 116 44 74 0
-80 86 44 74 0
-81 117 87 45 0
-81 117 87 75 0
-81 117 45 75 0
-81 87 45 75 0
-82 118 88 46 0
-82 118 88 76 0
-82 118 46 76 0
-82 88 46 76 0
-83 119 89 47 0
-83 119 89 77 0
-83 119 47 77 0
-83 89 47 77 0
-84 120 90 48 0
-84 120 90 78 0
-84 120 48 78 0
-84 90 48 78 0
-79 -115 -85 -43 0
-79 -115 -85 -73 0
-79 -115 -43 -73 0
-79 -85 -43 -73 0
-80 -116 -86 -44 0
-80 -116 -86 -74 0
-80 -116 -44 -74 0
-80 -86 -44 -74 0
-81 -117 -87 -45 0
-81 -117 -87 -75 0
-81 -117 -45 -75 0
-81 -87 -45 -75 0
-82 -118 -88 -46 0
-82 -118 -88 -76 0
-82 -118 -46 -76 0
-82 -88 -46 -76 0
-83 -119 -89 -47 0
-83 -119 -89 -77 0
-83 -119 -47 -77 0
-83 -89 -47 -77 0
-84 -120 -90 -48 0
-84 -120 -90 -78 0
-84 -120 -48 -78 0
-84 -90 -48 -78 0
-262 -263 0
-262 -264 0
-263 -264 0
-265 -266 0
-85 262 0
-85 265 0
-86 262 0
-86 266 0
-87 263 0
-87 265 0
-88 263 0
-88 266 0
-89 264 0
-89 265 0
-90 264 0
-90 266 0
-85 121 91 49 0
-85 121 91 79 0
-85 121 49 79 0
-85 91 49 79 0
-86 122 92 50 0
-86 122 92 80 0
-86 122 50 80 0
-86 92 50 80 0
-87 123 93 51 0
-87 123 93 81 0
-87 123 51 81 0
-87 93 51 81 0
-88 124 94 52 0
-88 124 94 82 0
-88 124 52 82 0
-88 94 52 82 0
-89 125 95 53 0
-89 125 95 83 0
-89 125 53 83 0
-89 95 53 83 0
-90 126 96 54 0
-90 126 96 84 0
-90 126 54 84 0
-90 96 54 84 0
-85 -121 -91 -49 0
-85 -121 -91 -79 0
-85 -121 -49 -79 0
-85 -91 -49 -79 0
-86 -122 -92 -50 0
-86 -122 -92 -80 0
-86 -122 -50 -80 0
-86 -92 -50 -80 0
-87 -123 -93 -51 0
-87 -123 -93 -81 0
-87 -123 -51 -81 0
-87 -93 -51 -81 0
-88 -124 -94 -52 0
-88 -124 -94 -82 0
-88 -124 -52 -82 0
-88 -94 -52 -82 0
-89 -125 -95 -53 0
-89 -125 -95 -83 0
-89 -125 -53 -83 0
-89 -95 -53 -83 0
-90 -126 -96 -54 0
-90 -126 -96 -84 0
-90 -126 -54 -84 0
-90 -96 -54 -84 0
-267 -268 0
-267 -269 0
-268 -269 0
-270 -271 0
-91 267 0
-91 270 0
-92 267 0
-92 271 0
-93 268 0
-93 270 0
-94 268 0
-94 271 0
-95 269 0
-95 270 0
-96 269 0
-96 271 0
-91 127 97 55 0
-91 127 97 85 0
-91 127 55 85 0
-91 97 55 85 0
-92 128 98 56 0
-92 128 98 86 0
-92 128 56 86 0
-92 98 56 86 0
-93 129 99 57 0
-93 129 99 87 0
-93 129 57 87 0
-93 99 57 87 0
-94 130 100 58 0
-94 130 100 88 0
-94 130 58 88 0
-94 100 58 88 0
-95 131 101 59 0
-95 131 101 89 0
-95 131 59 89 0
-95 101 59 89 0
-96 132 102 60 0
-96 132 102 90 0
-96 132 60 90 0
-96 102 60 90 0
-91 -127 -97 -55 0
-91 -127 -97 -85 0
-91 -127 -55 -85 0
-91 -97 -55 -85 0
-92 -128 -98 -56 0
-92 -128 -98 -86 0
-92 -128 -56 -86 0
-92 -98 -56 -86 0
-93 -129 -99 -57 0
-93 -129 -99 -87 0
-93 -129 -57 -87 0
-93 -99 -57 -87 0
-94 -130 -100 -58 0
-94 -130 -100 -88 0
-94 -130 -58 -88 0
-94 -100 -58 -88 0
-95 -131 -101 -59 0
-95 -131 -101 -89 0
-95 -131 -59 -89 0
-95 -101 -59 -89 0
-96 -132 -102 -60 0
-96 -132 -102 -90 0
-96 -132 -60 -90 0
-96 -102 -60 -90 0
101 0
-97 0
-98 0
-99 0
-100 0
-102 0
137 107 65 95 0
-137 -107 0
-137 -65 0
-137 -95 0
-107 -65 0
-107 -95 0
-65 -95 0
108 0
-103 0
-104 0
-105 0
-106 0
-107 0
144 102 72 0
-144 -102 0
-144 -72 0
-102 -72 0
-272 -273 0
-272 -274 0
-273 -274 0
-275 -276 0
-109 272 0
-109 275 0
-110 272 0
-110 276 0
-111 273 0
-111 275 0
-112 273 0
-112 276 0
-113 274 0
-113 275 0
-114 274 0
-114 276 0
-109 145 115 0
-109 145 73 0
-109 115 73 0
-110 146 116 0
-110 146 74 0
-110 116 74 0
-111 147 117 0
-111 147 75 0
-111 117 75 0
-112 148 118 0
-112 148 76 0
-112 118 76 0
-113 149 119 0
-113 149 77 0
-113 119 77 0
-114 150 120 0
-114 150 78 0
-114 120 78 0
-109 -145 -115 -73 0
-110 -146 -116 -74 0
-111 -147 -117 -75 0
-112 -148 -118 -76 0
-113 -149 -119 -77 0
-114 -150 -120 -78 0
-277 -278 0
-277 -279 0
-278 -279 0
-280 -281 0
-115 277 0
-115 280 0
-116 277 0
-116 281 0
-117 278 0
-117 280 0
-118 278 0
-118 281 0
-119 279 0
-119 280 0
-120 279 0
-120 281 0
-115 151 121 79 0
-115 151 121 109 0
-115 151 79 109 0
-115 121 79 109 0
-116 152 122 80 0
-116 152 122 110 0
-116 152 80 110 0
-116 122 80 110 0
-117 153 123 81 0
-117 153 123 111 0
-117 153 81 111 0
-117 123 81 111 0
-118 154 124 82 0
-118 154 124 112 0
-118 154 82 112 0
-118 124 82 112 0
-119 155 125 83 0
-119 155 125 113 0
-119 155 83 113 0
-119 125 83 113 0
-120 156 126 84 0
-120 156 126 114 0
-120 156 84 114 0
-120 126 84 114 0
-115 -151 -121 -79 0
-115 -151 -121 -109 0
-115 -151 -79 -109 0
-115 -121 -79 -109 0
-116 -152 -122 -80 0
-116 -152 -122 -110 0
-116 -152 -80 -110 0
-116 -122 -80 -110 0
-117 -153 -123 -81 0
-117 -153 -123 -111 0
-117 -153 -81 -111 0
-117 -123 -81 -111 0
-118 -154 -124 -82 0
-118 -154 -124 -112 0
-118 -154 -82 -112 0
-118 -124 -82 -112 0
-119 -155 -125 -83 0
-119 -155 -125 -113 0
-119 -155 -83 -113 0
-119 -125 -83 -113 0
-120 -156 -126 -84 0
-120 -156 -126 -114 0
-120 -156 -84 -114 0
-120 -126 -84 -114 0
123 0
-121 0
-122 0
-124 0
-125 0
-126 0
159 129 87 117 0
-159 -129 0
-159 -87 0
-159 -117 0
-129 -87 0
-129 -117 0
-87 -117 0
-282 -283 0
-282 -284 0
-283 -284 0
-285 -286 0
-127 282 0
-127 285 0
-128 282 0
-128 286 0
-129 283 0
-129 285 0
-130 283 0
-130 286 0
-131 284 0
-131 285 0
-132 284 0
-132 286 0
-127 163 133 91 0
-127 163 133 121 0
-127 163 91 121 0
-127 133 91 121 0
-128 164 134 92 0
-128 164 134 122 0
-128 164 92 122 0
-128 134 92 122 0
-129 165 135 93 0
-129 165 135 123 0
-129 165 93 123 0
-129 135 93 123 0
-130 166 136 94 0
-130 166 136 124 0
-130 166 94 124 0
-130 136 94 124 0
-131 167 137 95 0
-131 167 137 125 0
-131 167 95 125 0
-131 137 95 125 0
-132 168 138 96 0
-132 168 138 126 0
-132 168 96 126 0
-132 138 96 126 0
-127 -163 -133 -91 0
-127 -163 -133 -121 0
-127 -163 -91 -121 0
-127 -133 -91 -121 0
-128 -164 -134 -92 0
-128 -164 -134 -122 0
-128 -164 -92 -122 0
-128 -134 -92 -122 0
-129 -165 -135 -93 0
-129 -165 -135 -123 0
-129 -165 -93 -123 0
-129 -135 -93 -123 0
-130 -166 -136 -94 0
-130 -166 -136 -124 0
-130 -166 -94 -124 0
-130 -136 -94 -124 0
-131 -167 -137 -95 0
-131 -167 -137 -125 0
-131 -167 -95 -125 0
-131 -137 -95 -125 0
-132 -168 -138 -96 0
-132 -168 -138 -126 0
-132 -168 -96 -126 0
-132 -138 -96 -126 0
-287 -288 0
-287 -289 0
-288 -289 0
-290 -291 0
-133 287 0
-133 290 0
-134 287 0
-134 291 0
-135 288 0
-135 290 0
-136 288 0
-136 291 0
-137 289 0
-137 290 0
-138 289 0
-138 291 0
-133 169 139 97 0
-133 169 139 127 0
-133 169 97 127 0
-133 139 97 127 0
-134 170 140 98 0
-134 170 140 128 0
-134 170 98 128 0
-134 140 98 128 0
-135 171 141 99 0
-135 171 141 129 0
-135 171 99 129 0
-135 141 99 129 0
-136 172 142 100 0
-136 172 142 130 0
-136 172 100 130 0
-136 142 100 130 0
-137 173 143 101 0
-137 173 143 131 0
-137 173 101 131 0
-137 143 101 131 0
-138 174 144 102 0
-138 174 144 132 0
-138 174 102 132 0
-138 144 102 132 0
-133 -169 -139 -97 0
-133 -169 -139 -127 0
-133 -169 -97 -127 0
-133 -139 -97 -127 0
-134 -170 -140 -98 0
-134 -170 -140 -128 0
-134 -170 -98 -128 0
-134 -140 -98 -128 0
-135 -171 -141 -99 0
-135 -171 -141 -129 0
-135 -171 -99 -129 0
-135 -141 -99 -129 0
-136 -172 -142 -100 0
-136 -172 -142 -130 0
-136 -172 -100 -130 0
-136 -142 -100 -130 0
-137 -173 -143 -101 0
-137 -173 -143 -131 0
-137 -173 -101 -131 0
-137 -143 -101 -131 0
-138 -174 -144 -102 0
-138 -174 -144 -132 0
-138 -174 -102 -132 0
-138 -144 -102 -132 0
139 0
-140 0
-141 0
-142 0
-143 0
-144 0
175 133 103 0
-175 -133 0
-175 -103 0
-133 -103 0
-292 -293 0
-292 -294 0
-293 -294 0
-295 -296 0
-145 292 0
-145 295 0
-146 292 0
-146 296 0
-147 293 0
-147 295 0
-148 293 0
-148 296 0
-149 294 0
-149 295 0
-150 294 0
-150 296 0
-145 181 151 0
-145 181 109 0
-145 151 109 0
-146 182 152 0
-146 182 110 0
-146 152 110 0
-147 183 153 0
-147 183 111 0
-147 153 111 0
-148 184 154 0
-148 184 112 0
-148 154 112 0
-149 185 155 0
-149 185 113 0
-149 155 113 0
-150 186 156 0
-150 186 114 0
-150 156 114 0
-145 -181 -151 -109 0
-146 -182 -152 -110 0
-147 -183 -153 -111 0
-148 -184 -154 -112 0
-149 -185 -155 -113 0
-150 -186 -156 -114 0
152 0
-151 0
-153 0
-154 0
-155 0
-156 0
188 158 116 146 0
-188 -158 0
-188 -116 0
-188 -146 0
-158 -116 0
-158 -146 0
-116 -146 0
-297 -298 0
-297 -299 0
-298 -299 0
-300 -301 0
-157 297 0
-157 300 0
-158 297 0
-158 301 0
-159 298 0
-159 300 0
-160 298 0
-160 301 0
-161 299 0
-161 300 0
-162 299 0
-162 301 0
-157 193 163 121 0
-157 193 163 151 0
-157 193 121 151 0
-157 163 121 151 0
-158 194 164 122 0
-158 194 164 152 0
-158 194 122 152 0
-158 164 122 152 0
-159 195 165 123 0
-159 195 165 153 0
-159 195 123 153 0
-159 165 123 153 0
-160 196 166 124 0
-160 196 166 154 0
-160 196 124 154 0
-160 166 124 154 0
-161 197 167 125 0
-161 197 167 155 0
-161 197 125 155 0
-161 167 125 155 0
-162 198 168 126 0
-162 198 168 156 0
-162 198 126 156 0
-162 168 126 156 0
-157 -193 -163 -121 0
-157 -193 -163 -151 0
-157 -193 -121 -151 0
-157 -163 -121 -151 0
-158 -194 -164 -122 0
-158 -194 -164 -152 0
-158 -194 -122 -152 0
-158 -164 -122 -152 0
-159 -195 -165 -123 0
-159 -195 -165 -153 0
-159 -195 -123 -153 0
-159 -165 -123 -153 0
-160 -196 -166 -124 0
-160 -196 -166 -154 0
-160 -196 -124 -154 0
-160 -166 -124 -154 0
-161 -197 -167 -125 0
-161 -197 -167 -155 0
-161 -197 -125 -155 0
-161 -167 -125 -155 0
-162 -198 -168 -126 0
-162 -198 -168 -156 0
-162 -198 -126 -156 0
-162 -168 -126 -156 0
164 0
-163 0
-165 0
-166 0
-167 0
-168 0
200 170 128 158 0
-200 -170 0
-200 -128 0
-200 -158 0
-170 -128 0
-170 -158 0
-128 -158 0
172 0
-169 0
-170 0
-171 0
-173 0
-174 0
208 178 136 166 0
-208 -178 0
-208 -136 0
-208 -166 0
-178 -136 0
-178 -166 0
-136 -166 0
-302 -303 0
-302 -304 0
-303 -304 0
-305 -306 0
-175 302 0
-175 305 0
-176 302 0
-176 306 0
-177 303 0
-177 305 0
-178 303 0
-178 306 0
-179 304 0
-179 305 0
-180 304 0
-180 306 0
-175 211 169 0
-175 211 139 0
-175 169 139 0
-176 212 170 0
-176 212 140 0
-176 170 140 0
-177 213 171 0
-177 213 141 0
-177 171 141 0
-178 214 172 0
-178 214 142 0
-178 172 142 0
-179 215 173 0
-179 215 143 0
-179 173 143 0
-180 216 174 0
-180 216 144 0
-180 174 144 0
-175 -211 -169 -139 0
-176 -212 -170 -140 0
-177 -213 -171 -141 0
-178 -214 -172 -142 0
-179 -215 -173 -143 0
-180 -216 -174 -144 0
-307 -308 0
-307 -309 0
-308 -309 0
-310 -311 0
-181 307 0
-181 310 0
-182 307 0
-182 311 0
-183 308 0
-183 310 0
-184 308 0
-184 311 0
-185 309 0
-185 310 0
-186 309 0
-186 311 0
-181 145 0
-181 187 0
-182 146 0
-182 188 0
-183 147 0
-183 189 0
-184 148 0
-184 190 0
-185 149 0
-185 191 0
-186 150 0
-186 192 0
-312 -313 0
-312 -314 0
-313 -314 0
-315 -316 0
-187 312 0
-187 315 0
-188 312 0
-188 316 0
-189 313 0
-189 315 0
-190 313 0
-190 316 0
-191 314 0
-191 315 0
-192 314 0
-192 316 0
-187 151 193 0
-187 151 181 0
-187 193 181 0
-188 152 194 0
-188 152 182 0
-188 194 182 0
-189 153 195 0
-189 153 183 0
-189 195 183 0
-190 154 196 0
-190 154 184 0
-190 196 184 0
-191 155 197 0
-191 155 185 0
-191 197 185 0
-192 156 198 0
-192 156 186 0
-192 198 186 0
-187 -151 -193 -181 0
-188 -152 -194 -182 0
-189 -153 -195 -183 0
-190 -154 -196 -184 0
-191 -155 -197 -185 0
-192 -156 -198 -186 0
-317 -318 0
-317 -319 0
-318 -319 0
-320 -321 0
-193 317 0
-193 320 0
-194 317 0
-194 321 0
-195 318 0
-195 320 0
-196 318 0
-196 321 0
-197 319 0
-197 320 0
-198 319 0
-198 321 0
-193 157 199 0
-193 157 187 0
-193 199 187 0
-194 158 200 0
-194 158 188 0
-194 200 188 0
-195 159 201 0
-195 159 189 0
-195 201 189 0
-196 160 202 0
-196 160 190 0
-196 202 190 0
-197 161 203 0
-197 161 191 0
-197 203 191 0
-198 162 204 0
-198 162 192 0
-198 204 192 0
-193 -157 -199 -187 0
-194 -158 -200 -188 0
-195 -159 -201 -189 0
-196 -160 -202 -190 0
-197 -161 -203 -191 0
-198 -162 -204 -192 0
-322 -323 0
-322 -324 0
-323 -324 0
-325 -326 0
-199 322 0
-199 325 0
-200 322 0
-200 326 0
-201 323 0
-201 325 0
-202 323 0
-202 326 0
-203 324 0
-203 325 0
-204 324 0
-204 326 0
-199 163 205 0
-199 163 193 0
-199 205 193 0
-200 164 206 0
-200 164 194 0
-200 206 194 0
-201 165 207 0
-201 165 195 0
-201 207 195 0
-202 166 208 0
-202 166 196 0
-202 208 196 0
-203 167 209 0
-203 167 197 0
-203 209 197 0
-204 168 210 0
-204 168 198 0
-204 210 198 0
-199 -163 -205 -193 0
-200 -164 -206 -194 0
-201 -165 -207 -195 0
-202 -166 -208 -196 0
-203 -167 -209 -197 0
-204 -168 -210 -198 0
-327 -328 0
-327 -329 0
-328 -329 0
-330 -331 0
-205 327 0
-205 330 0
-206 327 0
-206 331 0
-207 328 0
-207 330 0
-208 328 0
-208 331 0
-209 329 0
-209 330 0
-210 329 0
-210 331 0
-205 169 211 0
-205 169 199 0
-205 211 199 0
-206 170 212 0
-206 170 200 0
-206 212 200 0
-207 171 213 0
-207 171 201 0
-207 213 201 0
-208 172 214 0
-208 172 202 0
-208 214 202 0
-209 173 215 0
-209 173 203 0
-209 215 203 0
-210 174 216 0
-210 174 204 0
-210 216 204 0
-205 -169 -211 -199 0
-206 -170 -212 -200 0
-207 -171 -213 -201 0
-208 -172 -214 -202 0
-209 -173 -215 -203 0
-210 -174 -216 -204 0
-332 -333 0
-332 -334 0
-333 -334 0
-335 -336 0
-211 332 0
-211 335 0
-212 332 0
-212 336 0
-213 333 0
-213 335 0
-214 333 0
-214 336 0
-215 334 0
-215 335 0
-216 334 0
-216 336 0
-211 175 0
-211 205 0
-212 176 0
-212 206 0
-213 177 0
-213 207 0
-214 178 0
-214 208 0
-215 179 0
-215 209 0
-216 180 0
-216 210 0
37 49 61 67 0
73 79 85 91 0
49 85 157 193 0
91 127 199 0
25 61 133 205 0
50 86 158 194 0
75 81 87 93 0
40 52 64 70 0
76 82 88 94 0
112 118 130 136 0
94 130 202 0
42 54 66 72 0
30 66 138 210 0